p cnf 91 377
20 -38 41 53 -54 -72 0
3 19 51 -68 -91 0
3 23 -50 -51 68 0
-3 -16 -23 -50 89 0
-3 -16 -86 -89 91 0
-5 -6 -65 74 82 0
7 9 40 -43 45 0
7 9 46 -47 -48 0
10 -21 22 -77 88 0
13 -31 57 -78 79 0
23 25 -33 -74 -80 0
36 37 62 -63 82 0
42 45 46 -60 83 0
7 9 40 45 46 0
13 57 78 79 -84 0
1 7 8 60 0
-1 -10 -70 -83 0
2 -35 56 -61 0
-3 4 51 -68 0
-3 -23 67 91 0
-3 50 -66 86 0
4 5 63 -84 0
4 16 19 68 0
4 52 -63 78 0
4 58 78 -79 0
-4 -5 52 78 0
-4 -19 -23 -79 0
-4 52 -78 -84 0
-6 -35 61 62 0
7 8 -48 64 0
7 8 55 64 0
7 -47 55 64 0
-9 -40 43 -44 0
10 20 22 88 0
-10 27 28 57 0
11 12 -28 34 0
12 13 -31 -79 0
12 -31 58 -79 0
13 -19 -51 91 0
13 49 85 -86 0
13 49 -86 91 0
13 -66 67 -90 0
-13 -49 -85 90 0
-15 -30 -31 -80 0
17 44 -71 77 0
-17 -18 -23 -40 0
-17 22 -53 -77 0
-18 -39 -47 -48 0
19 39 42 69 0
-19 -23 -38 -60 0
-19 -23 -50 -85 0
-19 -53 71 -72 0
-21 -69 70 -72 0
25 -28 -33 34 0
26 27 -28 -31 0
29 30 57 -73 0
29 -31 57 58 0
-42 60 83 -87 0
57 -73 78 -79 0
-16 -19 -51 68 -89 0
3 19 28 59 0
-4 -63 -78 84 0
17 -44 -71 77 0
-19 -41 -54 -72 0
-19 51 -81 -85 0
-22 41 53 -70 0
23 25 74 75 0
23 39 60 69 0
29 -31 57 -73 0
-31 58 -76 -80 0
-35 -61 -74 82 0
40 41 46 71 0
-49 -50 51 -68 0
1 2 -32 0
1 -8 -10 0
1 24 -32 0
-1 -24 -59 0
2 5 -62 0
2 6 -62 0
2 -32 -34 0
-2 23 -65 0
-2 35 61 0
3 -13 -67 0
3 -32 -56 0
-3 40 68 0
-3 -50 -66 0
-3 67 85 0
4 5 -52 0
4 23 32 0
5 -74 -82 0
6 -36 -37 0
6 -36 61 0
7 8 64 0
-7 -8 -42 0
8 9 -48 0
-8 -9 -46 0
-8 46 48 0
-8 -46 -64 0
-8 -54 -64 0
-8 -70 88 0
-8 -83 87 0
-9 -40 87 0
10 11 -28 0
10 26 -28 0
10 26 -34 0
-10 -12 73 0
11 14 57 0
-11 -14 -15 0
-11 76 80 0
12 14 -57 0
12 58 -78 0
-12 78 79 0
13 -19 -66 0
13 51 67 0
13 67 85 0
13 -86 -90 0
-13 68 90 0
14 57 58 0
-14 -58 76 0
15 -29 30 0
17 18 39 0
17 19 54 0
17 -38 54 0
-17 -44 -72 0
18 54 64 0
-18 -23 -43 0
-18 -54 81 0
19 -33 -36 0
19 41 60 0
19 -51 85 0
19 -75 -76 0
-19 -26 31 0
-19 36 37 0
-19 -69 83 0
-20 -22 -71 0
-20 -71 72 0
21 70 -88 0
22 -44 71 0
-22 54 70 0
23 -33 -36 0
23 38 54 0
23 41 48 0
23 -75 -76 0
-23 -24 -26 0
-23 -27 -28 0
-23 -41 -44 0
24 -32 59 0
-24 -25 28 0
-24 -33 -34 0
-24 -35 74 0
25 33 36 0
25 33 65 0
25 75 76 0
-25 -28 -59 0
26 27 34 0
27 30 57 0
-27 -33 -56 0
-29 -30 73 0
32 33 56 0
36 -37 63 0
39 40 64 0
-39 -40 -55 0
40 42 -87 0
-42 -60 -83 0
-45 48 55 0
-45 -55 70 0
-46 -47 64 0
50 66 -89 0
52 -61 -82 0
66 67 -90 0
66 -67 86 0
69 70 88 0
70 -71 72 0
-85 -86 90 0
-19 -23 79 -84 0
1 2 0
1 21 0
1 24 0
1 32 0
1 -33 0
1 42 0
1 -42 0
1 45 0
1 69 0
1 83 0
1 86 0
-1 -2 0
-1 -3 0
-1 24 0
-1 -56 0
-1 62 0
-1 65 0
-1 73 0
-1 -88 0
2 -5 0
2 56 0
2 65 0
-2 -6 0
-2 25 0
3 7 0
3 -26 0
3 32 0
3 35 0
3 -62 0
3 87 0
3 89 0
3 -91 0
-3 -4 0
-3 32 0
-3 -39 0
-3 67 0
-3 -86 0
-3 -89 0
4 8 0
4 10 0
4 44 0
4 -51 0
4 52 0
4 59 0
4 61 0
4 82 0
4 91 0
4 -91 0
-4 -19 0
-4 78 0
5 -35 0
5 -63 0
5 -78 0
-5 35 0
-5 61 0
6 35 0
6 61 0
6 -62 0
-6 29 0
-6 37 0
-6 65 0
-6 84 0
7 45 0
7 -47 0
-7 -45 0
-7 -46 0
-7 -60 0
-7 87 0
8 9 0
8 -10 0
8 -46 0
8 55 0
8 -58 0
8 -70 0
-8 45 0
-8 54 0
-8 -55 0
-8 -83 0
-8 87 0
9 -47 0
9 -87 0
-9 -45 0
10 11 0
10 21 0
10 -36 0
10 -57 0
10 -58 0
10 69 0
10 -70 0
10 -72 0
10 83 0
-10 -11 0
-10 14 0
-10 -26 0
11 -12 0
11 15 0
-11 13 0
-11 31 0
-11 -57 0
-11 76 0
-11 80 0
12 -27 0
12 28 0
12 -61 0
12 -73 0
-12 -13 0
-12 31 0
-12 -58 0
-12 -78 0
-12 -79 0
13 14 0
13 -79 0
-13 -54 0
-13 86 0
14 31 0
14 -58 0
14 73 0
14 78 0
-14 -31 0
-14 57 0
-14 73 0
-14 78 0
-14 -78 0
-14 79 0
15 31 0
15 -31 0
15 -57 0
15 -58 0
-15 29 0
-15 80 0
16 23 0
16 49 0
16 50 0
16 51 0
-16 -19 0
-16 -23 0
-16 -49 0
17 40 0
17 76 0
17 -81 0
-17 40 0
-17 -69 0
-17 77 0
18 41 0
18 42 0
18 47 0
18 64 0
18 -71 0
-18 -38 0
-18 47 0
-18 -53 0
-18 -55 0
-18 -64 0
-18 -69 0
-18 81 0
19 21 0
19 34 0
19 56 0
19 -65 0
19 75 0
19 -80 0
-19 -27 0
-19 30 0
-19 -31 0
-19 -40 0
-19 -47 0
-19 -50 0
-19 -54 0
-19 -59 0
-19 -64 0
-19 -77 0
-19 -79 0
-19 86 0
-19 -86 0
-19 89 0
-19 -89 0
20 55 0
20 -69 0
20 -70 0
-20 -21 0
-20 77 0
-21 56 0
-21 -88 0
22 41 0
22 53 0
22 69 0
-22 -41 0
-22 -71 0
23 27 0
23 -30 0
23 40 0
23 56 0
23 -68 0
23 -75 0
23 -77 0
23 -91 0
-23 -34 0
-23 36 0
-23 -53 0
-23 54 0
-23 -59 0
-23 65 0
